p tdp 116 115
37 100
91 110
104 105
29 3
92 62
25 97
58 34
38 30
107 5
29 55
76 50
26 46
8 40
11 16
72 112
59 8
31 20
9 115
36 86
44 77
17 19
103 68
9 60
30 21
71 82
43 116
57 23
28 70
42 18
78 5
81 73
52 22
11 82
49 93
88 36
44 1
17 79
47 64
113 73
16 102
98 7
35 4
89 114
7 31
31 74
63 77
67 85
2 36
61 96
75 41
76 57
25 61
24 53
65 92
33 41
15 54
65 57
86 35
94 90
69 80
18 79
29 101
93 71
106 35
98 47
73 21
91 56
87 14
43 41
41 39
12 96
105 24
87 69
27 10
83 84
15 104
33 85
101 68
95 36
41 70
85 109
114 27
84 51
34 90
1 53
79 94
114 21
78 100
68 11
48 92
40 48
98 63
38 6
41 108
32 13
115 3
66 60
74 72
26 76
32 34
14 100
45 72
103 99
43 89
84 95
111 81
44 82
51 12
91 20
22 57
96 69
18 26
2 28
54 6
59 105
